NAME : F10.463894.tour
COMMENT : Length = 463894
COMMENT : Found by LKH [Keld Helsgaun] Sun Dec 17 22:07:33 2017
TYPE : TOUR
DIMENSION : 48
TOUR_SECTION
1
16
2
3
17
11
18
19
12
13
15
14
47
21
22
9
20
26
27
23
24
46
25
10
38
39
37
43
40
41
35
4
5
36
8
6
7
28
30
48
44
45
31
42
32
33
34
29
-1
EOF
